(set-info :smt-lib-version 2.6)
(set-logic UF)
(set-info :source |Benchmarks from the paper: "Extending Sledgehammer with SMT Solvers" by Jasmin Blanchette, Sascha Bohme, and Lawrence C. Paulson, CADE 2011.  Translated to SMT2 by Andrew Reynolds and Morgan Deters.|)
(set-info :category "industrial")
(set-info :status unknown)
(declare-sort S1 0)
(declare-sort S2 0)
(declare-sort S3 0)
(declare-sort S4 0)
(declare-sort S5 0)
(declare-sort S6 0)
(declare-sort S7 0)
(declare-sort S8 0)
(declare-sort S9 0)
(declare-sort S10 0)
(declare-sort S11 0)
(declare-sort S12 0)
(declare-sort S13 0)
(declare-sort S14 0)
(declare-sort S15 0)
(declare-sort S16 0)
(declare-sort S17 0)
(declare-sort S18 0)
(declare-sort S19 0)
(declare-sort S20 0)
(declare-sort S21 0)
(declare-sort S22 0)
(declare-sort S23 0)
(declare-sort S24 0)
(declare-sort S25 0)
(declare-sort S26 0)
(declare-sort S27 0)
(declare-sort S28 0)
(declare-sort S29 0)
(declare-sort S30 0)
(declare-sort S31 0)
(declare-sort S32 0)
(declare-sort S33 0)
(declare-sort S34 0)
(declare-sort S35 0)
(declare-sort S36 0)
(declare-sort S37 0)
(declare-sort S38 0)
(declare-sort S39 0)
(declare-sort S40 0)
(declare-sort S41 0)
(declare-sort S42 0)
(declare-sort S43 0)
(declare-sort S44 0)
(declare-sort S45 0)
(declare-sort S46 0)
(declare-sort S47 0)
(declare-sort S48 0)
(declare-sort S49 0)
(declare-sort S50 0)
(declare-sort S51 0)
(declare-sort S52 0)
(declare-sort S53 0)
(declare-sort S54 0)
(declare-sort S55 0)
(declare-sort S56 0)
(declare-sort S57 0)
(declare-sort S58 0)
(declare-sort S59 0)
(declare-sort S60 0)
(declare-sort S61 0)
(declare-sort S62 0)
(declare-sort S63 0)
(declare-sort S64 0)
(declare-sort S65 0)
(declare-sort S66 0)
(declare-sort S67 0)
(declare-sort S68 0)
(declare-sort S69 0)
(declare-sort S70 0)
(declare-fun f1 () S1)
(declare-fun f2 () S1)
(declare-fun f3 (S2 S3) S1)
(declare-fun f4 (S4 S5) S2)
(declare-fun f5 () S4)
(declare-fun f6 (S6 S7) S5)
(declare-fun f7 () S6)
(declare-fun f8 () S7)
(declare-fun f9 (S8 S3) S3)
(declare-fun f10 () S8)
(declare-fun f11 (S9 S10) S3)
(declare-fun f12 (S11 S12) S9)
(declare-fun f13 () S11)
(declare-fun f14 () S12)
(declare-fun f15 () S10)
(declare-fun f16 (S13 S14) S1)
(declare-fun f17 (S15 S16) S13)
(declare-fun f18 () S15)
(declare-fun f19 (S17 S5) S16)
(declare-fun f20 (S18 S12) S17)
(declare-fun f21 (S19 S12) S18)
(declare-fun f22 () S19)
(declare-fun f23 () S12)
(declare-fun f24 () S12)
(declare-fun f25 (S20 S5) S5)
(declare-fun f26 (S21 S7) S20)
(declare-fun f27 () S21)
(declare-fun f28 (S22 S12) S7)
(declare-fun f29 () S22)
(declare-fun f30 (S23 S5) S20)
(declare-fun f31 () S23)
(declare-fun f32 () S5)
(declare-fun f33 (S24 S12) S5)
(declare-fun f34 () S24)
(declare-fun f35 () S12)
(declare-fun f36 () S5)
(declare-fun f37 (S25 S10) S14)
(declare-fun f38 () S25)
(declare-fun f39 () S6)
(declare-fun f40 () S7)
(declare-fun f41 () S8)
(declare-fun f42 (S26 S27) S1)
(declare-fun f43 (S28 S10) S26)
(declare-fun f44 () S28)
(declare-fun f45 () S27)
(declare-fun f46 (S29 S30) S1)
(declare-fun f47 (S31 S12) S29)
(declare-fun f48 () S31)
(declare-fun f49 () S30)
(declare-fun f50 (S32 S10) S10)
(declare-fun f51 (S33 S16) S32)
(declare-fun f52 () S33)
(declare-fun f53 (S27 S10) S1)
(declare-fun f54 () S27)
(declare-fun f55 () S18)
(declare-fun f56 (S34 S35) S1)
(declare-fun f57 (S36 S7) S34)
(declare-fun f58 () S36)
(declare-fun f59 () S35)
(declare-fun f60 () S9)
(declare-fun f61 (S39 S38) S1)
(declare-fun f62 (S40 S37) S39)
(declare-fun f63 () S40)
(declare-fun f64 (S38 S37) S1)
(declare-fun f65 (S43 S42) S1)
(declare-fun f66 (S44 S41) S43)
(declare-fun f67 () S44)
(declare-fun f68 (S42 S41) S1)
(declare-fun f69 (S3 S5) S1)
(declare-fun f70 (S14 S16) S1)
(declare-fun f71 (S30 S12) S1)
(declare-fun f72 (S35 S7) S1)
(declare-fun f73 (S46 S45) S42)
(declare-fun f74 () S46)
(declare-fun f75 (S47 S45) S45)
(declare-fun f76 (S48 S41) S47)
(declare-fun f77 () S48)
(declare-fun f78 (S49 S41) S38)
(declare-fun f79 () S49)
(declare-fun f80 (S50 S41) S41)
(declare-fun f81 (S51 S37) S50)
(declare-fun f82 () S51)
(declare-fun f83 (S53 S52) S3)
(declare-fun f84 () S53)
(declare-fun f85 (S54 S52) S52)
(declare-fun f86 (S55 S5) S54)
(declare-fun f87 () S55)
(declare-fun f88 (S57 S56) S27)
(declare-fun f89 () S57)
(declare-fun f90 (S58 S56) S56)
(declare-fun f91 (S59 S10) S58)
(declare-fun f92 () S59)
(declare-fun f93 (S61 S60) S30)
(declare-fun f94 () S61)
(declare-fun f95 (S62 S60) S60)
(declare-fun f96 (S63 S12) S62)
(declare-fun f97 () S63)
(declare-fun f98 (S65 S64) S35)
(declare-fun f99 () S65)
(declare-fun f100 (S66 S64) S64)
(declare-fun f101 (S67 S7) S66)
(declare-fun f102 () S67)
(declare-fun f103 (S68 S3) S35)
(declare-fun f104 () S68)
(declare-fun f105 () S8)
(declare-fun f106 () S18)
(declare-fun f107 (S69 S30) S35)
(declare-fun f108 (S70 S22) S69)
(declare-fun f109 () S70)
(declare-fun f110 () S30)
(assert (not (= f1 f2)))
(assert (let ((?v_0 (f6 f7 f8)) (?v_1 (f11 (f12 f13 f14) f15)) (?v_3 (f37 f38 f15)) (?v_2 (f25 (f26 f27 f8) (f6 f39 f40)))) (not (=> (not (= (f3 (f4 f5 ?v_0) (f9 f10 ?v_1)) f1)) (=> (= (f16 (f17 f18 (f19 (f20 (f21 f22 f23) f24) (f25 (f26 f27 (f28 f29 f24)) (f25 (f30 f31 f32) (f25 (f30 f31 (f33 f34 f35)) (f25 (f30 f31 ?v_0) f36)))))) ?v_3) f1) (=> (= (f3 (f4 f5 ?v_2) (f9 f41 ?v_1)) f1) (= (f16 (f17 f18 (f19 (f20 (f21 f22 f35) f24) ?v_2)) ?v_3) f1)))))))
(assert (= (f42 (f43 f44 f15) f45) f1))
(assert (forall ((?v0 S12) (?v1 S5) (?v2 S5) (?v3 S5) (?v4 S5) (?v5 S10)) (=> (= (f16 (f17 f18 (f19 (f20 (f21 f22 f23) ?v0) (f25 (f26 f27 (f28 f29 ?v0)) (f25 (f30 f31 ?v1) (f25 (f30 f31 ?v2) (f25 (f30 f31 ?v3) ?v4)))))) (f37 f38 ?v5)) f1) (= (f3 (f4 f5 ?v3) (f9 f41 (f11 (f12 f13 f14) ?v5))) f1))))
(assert (forall ((?v0 S12) (?v1 S5) (?v2 S12) (?v3 S7) (?v4 S5) (?v5 S10) (?v6 S12) (?v7 S5) (?v8 S12) (?v9 S5)) (let ((?v_0 (f21 f22 f23)) (?v_1 (f30 f31 (f6 f7 ?v3))) (?v_2 (f37 f38 ?v5))) (=> (= (f16 (f17 f18 (f19 (f20 ?v_0 ?v0) (f25 (f26 f27 (f28 f29 ?v0)) (f25 (f30 f31 ?v1) (f25 (f30 f31 (f33 f34 ?v2)) (f25 ?v_1 ?v4)))))) ?v_2) f1) (=> (= (f16 (f17 f18 (f19 (f20 ?v_0 ?v6) (f25 (f26 f27 (f28 f29 ?v6)) (f25 (f30 f31 ?v7) (f25 (f30 f31 (f33 f34 ?v8)) (f25 ?v_1 ?v9)))))) ?v_2) f1) (=> (= (f42 (f43 f44 ?v5) f45) f1) (and (= ?v0 ?v6) (and (= ?v1 ?v7) (and (= ?v2 ?v8) (= ?v4 ?v9))))))))))
(assert (forall ((?v0 S12) (?v1 S12) (?v2 S7) (?v3 S5) (?v4 S5) (?v5 S5) (?v6 S5) (?v7 S10)) (=> (= (f16 (f17 f18 (f19 (f20 (f21 f22 ?v0) ?v1) (f25 (f26 f27 ?v2) (f25 (f30 f31 ?v3) (f25 (f30 f31 ?v4) (f25 (f30 f31 ?v5) ?v6)))))) (f37 f38 ?v7)) f1) (= (f3 (f4 f5 ?v6) (f9 f41 (f11 (f12 f13 f14) ?v7))) f1))))
(assert (forall ((?v0 S12) (?v1 S10)) (= (f3 (f4 f5 (f6 f7 (f28 f29 ?v0))) (f11 (f12 f13 ?v0) ?v1)) f1)))
(assert (forall ((?v0 S12) (?v1 S12) (?v2 S5) (?v3 S10)) (=> (= (f16 (f17 f18 (f19 (f20 (f21 f22 ?v0) ?v1) ?v2)) (f37 f38 ?v3)) f1) (=> (=> (= (f3 (f4 f5 ?v2) (f9 f41 (f11 (f12 f13 f14) ?v3))) f1) false) false))))
(assert (forall ((?v0 S12) (?v1 S12) (?v2 S5) (?v3 S10)) (=> (= (f16 (f17 f18 (f19 (f20 (f21 f22 ?v0) ?v1) ?v2)) (f37 f38 ?v3)) f1) (= (f3 (f4 f5 ?v2) (f9 f10 (f11 (f12 f13 f14) ?v3))) f1))))
(assert (forall ((?v0 S12) (?v1 S5) (?v2 S12) (?v3 S7) (?v4 S5) (?v5 S10)) (let ((?v_0 (f25 (f26 f27 (f28 f29 ?v0)) (f25 (f30 f31 ?v1) (f25 (f30 f31 (f33 f34 ?v2)) (f25 (f30 f31 (f6 f7 ?v3)) ?v4)))))) (=> (= (f3 (f4 f5 ?v_0) (f9 f41 (f11 (f12 f13 f14) ?v5))) f1) (=> (not (= (f46 (f47 f48 ?v0) f49) f1)) (=> (= (f42 (f43 f44 ?v5) f45) f1) (= (f16 (f17 f18 (f19 (f20 (f21 f22 f23) ?v0) ?v_0)) (f37 f38 ?v5)) f1)))))))
(assert (forall ((?v0 S5) (?v1 S5) (?v2 S3)) (let ((?v_0 (f9 f41 ?v2))) (=> (= (f3 (f4 f5 (f25 (f30 f31 ?v0) ?v1)) ?v_0) f1) (=> (=> (= (f3 (f4 f5 ?v0) ?v_0) f1) (=> (= (f3 (f4 f5 ?v1) ?v_0) f1) false)) false)))))
(assert (forall ((?v0 S5) (?v1 S5) (?v2 S3)) (let ((?v_0 (f9 f10 ?v2))) (=> (= (f3 (f4 f5 (f25 (f30 f31 ?v0) ?v1)) ?v_0) f1) (=> (=> (= (f3 (f4 f5 ?v0) ?v_0) f1) (=> (= (f3 (f4 f5 ?v1) ?v_0) f1) false)) false)))))
(assert (forall ((?v0 S12) (?v1 S12) (?v2 S5) (?v3 S10)) (=> (= (f16 (f17 f18 (f19 (f20 (f21 f22 ?v0) ?v1) ?v2)) (f37 f38 ?v3)) f1) (= (f3 (f4 f5 ?v2) (f11 (f12 f13 f14) ?v3)) f1))))
(assert (forall ((?v0 S12) (?v1 S5) (?v2 S3)) (let ((?v_0 (f28 f29 ?v0)) (?v_1 (f9 f10 ?v2))) (=> (= (f3 (f4 f5 (f25 (f26 f27 ?v_0) ?v1)) ?v_1) f1) (=> (= (f3 (f4 f5 (f6 f7 ?v_0)) ?v_1) f1) (= (f3 (f4 f5 ?v1) ?v_1) f1))))))
(assert (forall ((?v0 S12) (?v1 S7) (?v2 S12) (?v3 S10)) (=> (= (f3 (f4 f5 (f25 (f26 f27 (f28 f29 ?v0)) (f25 (f30 f31 (f6 f7 ?v1)) (f33 f34 ?v2)))) (f9 f41 (f11 (f12 f13 f14) ?v3))) f1) (=> (not (= (f46 (f47 f48 ?v0) f49) f1)) (=> (= (f42 (f43 f44 ?v3) f45) f1) (exists ((?v4 S5)) (let ((?v_0 (f30 f31 (f6 f7 ?v1)))) (= (f16 (f17 f18 (f19 (f20 (f21 f22 f23) ?v2) (f25 (f26 f27 (f28 f29 ?v2)) (f25 (f30 f31 ?v4) (f25 (f30 f31 (f33 f34 ?v0)) (f25 ?v_0 (f25 (f26 f27 (f28 f29 ?v0)) (f25 ?v_0 (f33 f34 ?v2))))))))) (f37 f38 ?v3)) f1))))))))
(assert (forall ((?v0 S12) (?v1 S12) (?v2 S5) (?v3 S10)) (=> (= (f16 (f17 f18 (f19 (f20 (f21 f22 ?v0) ?v1) ?v2)) (f37 f38 ?v3)) f1) (= (f3 (f4 f5 ?v2) (f11 (f12 f13 ?v0) ?v3)) f1))))
(assert (forall ((?v0 S5) (?v1 S10) (?v2 S1)) (let ((?v_0 (=> (not (= (f3 (f4 f5 ?v0) (f9 f10 (f11 (f12 f13 f14) ?v1))) f1)) (= ?v2 f1)))) (=> ?v_0 ?v_0))))
(assert (forall ((?v0 S10) (?v1 S12) (?v2 S12) (?v3 S7) (?v4 S12) (?v5 S7) (?v6 S5)) (let ((?v_1 (f6 f39 ?v3)) (?v_0 (f30 f31 (f33 f34 ?v4))) (?v_2 (f37 f38 ?v0)) (?v_3 (f21 f22 ?v1))) (=> (= (f42 (f43 f44 ?v0) f45) f1) (=> (not (= ?v1 f23)) (=> (= (f16 (f17 f18 (f19 (f20 (f21 f22 ?v2) ?v1) (f25 (f26 f27 (f28 f29 ?v1)) (f25 (f30 f31 ?v_1) (f25 ?v_0 (f25 (f30 f31 (f6 f7 ?v5)) ?v6)))))) ?v_2) f1) (=> (= (f16 (f17 f18 (f19 (f20 ?v_3 f23) (f25 (f30 f31 (f33 f34 ?v1)) (f25 ?v_0 ?v_1)))) ?v_2) f1) (= (f42 (f43 f44 (f50 (f51 f52 (f19 (f20 ?v_3 ?v4) ?v6)) ?v0)) f45) f1))))))))
(assert (forall ((?v0 S5) (?v1 S3)) (let ((?v_0 (f4 f5 ?v0))) (=> (= (f3 ?v_0 ?v1) f1) (= (f3 ?v_0 (f9 f10 ?v1)) f1)))))
(assert (forall ((?v0 S5) (?v1 S3)) (let ((?v_0 (f4 f5 ?v0))) (=> (= (f3 ?v_0 ?v1) f1) (= (f3 ?v_0 (f9 f41 ?v1)) f1)))))
(assert (= (f46 (f47 f48 f14) f49) f1))
(assert (forall ((?v0 S12) (?v1 S10)) (=> (= (f46 (f47 f48 ?v0) f49) f1) (= (f3 (f4 f5 (f6 f7 (f28 f29 ?v0))) (f11 (f12 f13 f14) ?v1)) f1))))
(assert (not (= (f46 (f47 f48 f23) f49) f1)))
(assert (forall ((?v0 S5) (?v1 S12) (?v2 S12) (?v3 S5) (?v4 S10)) (let ((?v_1 (f12 f13 f14)) (?v_0 (f4 f5 ?v0))) (=> (not (= (f3 ?v_0 (f9 f10 (f11 ?v_1 (f50 (f51 f52 (f19 (f20 (f21 f22 ?v1) ?v2) ?v3)) ?v4)))) f1)) (not (= (f3 ?v_0 (f9 f10 (f11 ?v_1 ?v4))) f1))))))
(assert (forall ((?v0 S5) (?v1 S3)) (let ((?v_0 (f4 f5 ?v0)) (?v_1 (f9 f10 ?v1))) (=> (= (f3 ?v_0 (f9 f10 ?v_1)) f1) (= (f3 ?v_0 ?v_1) f1)))))
(assert (forall ((?v0 S3)) (let ((?v_0 (f9 f10 ?v0))) (= (f9 f10 ?v_0) ?v_0))))
(assert (forall ((?v0 S5) (?v1 S5) (?v2 S5) (?v3 S5)) (= (= (f25 (f30 f31 ?v0) ?v1) (f25 (f30 f31 ?v2) ?v3)) (and (= ?v0 ?v2) (= ?v1 ?v3)))))
(assert (forall ((?v0 S7) (?v1 S7)) (= (= (f6 f7 ?v0) (f6 f7 ?v1)) (= ?v0 ?v1))))
(assert (forall ((?v0 S5) (?v1 S3)) (let ((?v_0 (f4 f5 ?v0)) (?v_1 (f9 f41 ?v1))) (=> (= (f3 ?v_0 (f9 f41 ?v_1)) f1) (= (f3 ?v_0 ?v_1) f1)))))
(assert (forall ((?v0 S3)) (let ((?v_0 (f9 f41 ?v0))) (= (f9 f41 ?v_0) ?v_0))))
(assert (forall ((?v0 S7) (?v1 S5) (?v2 S7) (?v3 S5)) (= (= (f25 (f26 f27 ?v0) ?v1) (f25 (f26 f27 ?v2) ?v3)) (and (= ?v0 ?v2) (= ?v1 ?v3)))))
(assert (forall ((?v0 S7) (?v1 S7)) (= (= (f6 f39 ?v0) (f6 f39 ?v1)) (= ?v0 ?v1))))
(assert (forall ((?v0 S12) (?v1 S12)) (= (= (f33 f34 ?v0) (f33 f34 ?v1)) (= ?v0 ?v1))))
(assert (forall ((?v0 S12) (?v1 S12)) (= (= (f28 f29 ?v0) (f28 f29 ?v1)) (= ?v0 ?v1))))
(assert (forall ((?v0 S12) (?v1 S12) (?v2 S5) (?v3 S12) (?v4 S12) (?v5 S5)) (= (= (f19 (f20 (f21 f22 ?v0) ?v1) ?v2) (f19 (f20 (f21 f22 ?v3) ?v4) ?v5)) (and (= ?v0 ?v3) (and (= ?v1 ?v4) (= ?v2 ?v5))))))
(assert (forall ((?v0 S12) (?v1 S5) (?v2 S10)) (let ((?v_0 (f9 f10 (f11 (f12 f13 f14) ?v2)))) (=> (= (f3 (f4 f5 (f25 (f26 f27 (f28 f29 ?v0)) ?v1)) ?v_0) f1) (=> (= (f46 (f47 f48 ?v0) f49) f1) (= (f3 (f4 f5 ?v1) ?v_0) f1))))))
(assert (forall ((?v0 S5) (?v1 S5) (?v2 S3)) (let ((?v_0 (f9 f10 ?v2))) (=> (= (f3 (f4 f5 (f25 (f30 f31 ?v0) ?v1)) ?v_0) f1) (= (f3 (f4 f5 ?v1) ?v_0) f1)))))
(assert (forall ((?v0 S5) (?v1 S5) (?v2 S3)) (let ((?v_0 (f9 f10 ?v2))) (=> (= (f3 (f4 f5 (f25 (f30 f31 ?v0) ?v1)) ?v_0) f1) (= (f3 (f4 f5 ?v0) ?v_0) f1)))))
(assert (forall ((?v0 S5) (?v1 S3)) (let ((?v_0 (f4 f5 ?v0))) (=> (= (f3 ?v_0 (f9 f10 ?v1)) f1) (= (f3 ?v_0 (f9 f41 ?v1)) f1)))))
(assert (forall ((?v0 S5) (?v1 S3)) (let ((?v_0 (f4 f5 ?v0))) (=> (not (= (f3 ?v_0 (f9 f41 ?v1)) f1)) (not (= (f3 ?v_0 (f9 f10 ?v1)) f1))))))
(assert (forall ((?v0 S5) (?v1 S3)) (let ((?v_0 (f4 f5 ?v0))) (let ((?v_1 (= (f3 ?v_0 (f9 f41 ?v1)) f1))) (= (or (= (f3 ?v_0 (f9 f10 ?v1)) f1) ?v_1) ?v_1)))))
(assert (forall ((?v0 S5) (?v1 S3)) (let ((?v_0 (f4 f5 ?v0))) (let ((?v_1 (= (f3 ?v_0 (f9 f10 ?v1)) f1))) (= (and ?v_1 (= (f3 ?v_0 (f9 f41 ?v1)) f1)) ?v_1)))))
(assert (forall ((?v0 S3)) (= (f9 f41 (f9 f10 ?v0)) (f9 f41 ?v0))))
(assert (forall ((?v0 S3)) (let ((?v_0 (f9 f41 ?v0))) (= (f9 f10 ?v_0) ?v_0))))
(assert (forall ((?v0 S5) (?v1 S5) (?v2 S7)) (not (= (f25 (f30 f31 ?v0) ?v1) (f6 f7 ?v2)))))
(assert (forall ((?v0 S7) (?v1 S5) (?v2 S5)) (not (= (f6 f7 ?v0) (f25 (f30 f31 ?v1) ?v2)))))
(assert (forall ((?v0 S5) (?v1 S5) (?v2 S3)) (let ((?v_0 (f9 f41 ?v2))) (=> (= (f3 (f4 f5 (f25 (f30 f31 ?v0) ?v1)) ?v_0) f1) (= (f3 (f4 f5 ?v1) ?v_0) f1)))))
(assert (forall ((?v0 S5) (?v1 S5) (?v2 S3)) (let ((?v_0 (f9 f41 ?v2))) (=> (= (f3 (f4 f5 (f25 (f30 f31 ?v0) ?v1)) ?v_0) f1) (= (f3 (f4 f5 ?v0) ?v_0) f1)))))
(assert (forall ((?v0 S5) (?v1 S5) (?v2 S7) (?v3 S5)) (not (= (f25 (f30 f31 ?v0) ?v1) (f25 (f26 f27 ?v2) ?v3)))))
(assert (forall ((?v0 S7) (?v1 S5) (?v2 S5) (?v3 S5)) (not (= (f25 (f26 f27 ?v0) ?v1) (f25 (f30 f31 ?v2) ?v3)))))
(assert (forall ((?v0 S7) (?v1 S5) (?v2 S7)) (not (= (f25 (f26 f27 ?v0) ?v1) (f6 f7 ?v2)))))
(assert (forall ((?v0 S7) (?v1 S7) (?v2 S5)) (not (= (f6 f7 ?v0) (f25 (f26 f27 ?v1) ?v2)))))
(assert (forall ((?v0 S7) (?v1 S5) (?v2 S3)) (let ((?v_0 (f9 f41 ?v2))) (=> (= (f3 (f4 f5 (f25 (f26 f27 ?v0) ?v1)) ?v_0) f1) (=> (=> (= (f3 (f4 f5 ?v1) ?v_0) f1) false) false)))))
(assert (forall ((?v0 S7) (?v1 S5) (?v2 S3)) (let ((?v_0 (f9 f41 ?v2))) (=> (= (f3 (f4 f5 (f25 (f26 f27 ?v0) ?v1)) ?v_0) f1) (= (f3 (f4 f5 ?v1) ?v_0) f1)))))
(assert (forall ((?v0 S5) (?v1 S5) (?v2 S7)) (not (= (f25 (f30 f31 ?v0) ?v1) (f6 f39 ?v2)))))
(assert (forall ((?v0 S5) (?v1 S5) (?v2 S12)) (not (= (f25 (f30 f31 ?v0) ?v1) (f33 f34 ?v2)))))
(assert (forall ((?v0 S7) (?v1 S5) (?v2 S5)) (not (= (f6 f39 ?v0) (f25 (f30 f31 ?v1) ?v2)))))
(assert (forall ((?v0 S12) (?v1 S5) (?v2 S5)) (not (= (f33 f34 ?v0) (f25 (f30 f31 ?v1) ?v2)))))
(assert (forall ((?v0 S7) (?v1 S7)) (not (= (f6 f39 ?v0) (f6 f7 ?v1)))))
(assert (forall ((?v0 S12) (?v1 S7)) (not (= (f33 f34 ?v0) (f6 f7 ?v1)))))
(assert (forall ((?v0 S7) (?v1 S7)) (not (= (f6 f7 ?v0) (f6 f39 ?v1)))))
(assert (forall ((?v0 S7) (?v1 S12)) (not (= (f6 f7 ?v0) (f33 f34 ?v1)))))
(assert (forall ((?v0 S7) (?v1 S5) (?v2 S7)) (not (= (f25 (f26 f27 ?v0) ?v1) (f6 f39 ?v2)))))
(assert (forall ((?v0 S7) (?v1 S5) (?v2 S12)) (not (= (f25 (f26 f27 ?v0) ?v1) (f33 f34 ?v2)))))
(assert (forall ((?v0 S7) (?v1 S7) (?v2 S5)) (not (= (f6 f39 ?v0) (f25 (f26 f27 ?v1) ?v2)))))
(assert (forall ((?v0 S12) (?v1 S7) (?v2 S5)) (not (= (f33 f34 ?v0) (f25 (f26 f27 ?v1) ?v2)))))
(assert (forall ((?v0 S7) (?v1 S12)) (not (= (f6 f39 ?v0) (f33 f34 ?v1)))))
(assert (forall ((?v0 S12) (?v1 S7)) (not (= (f33 f34 ?v0) (f6 f39 ?v1)))))
(assert (not (= f23 f14)))
(assert (not (= f14 f23)))
(assert (forall ((?v0 S10) (?v1 S12)) (=> (= (f42 (f43 f44 ?v0) f45) f1) (= (= (f3 (f4 f5 (f6 f7 (f28 f29 ?v1))) (f9 f10 (f11 (f12 f13 f14) ?v0))) f1) (= (f46 (f47 f48 ?v1) f49) f1)))))
(assert (forall ((?v0 S10) (?v1 S12)) (=> (= (f42 (f43 f44 ?v0) f45) f1) (= (= (f3 (f4 f5 (f6 f7 (f28 f29 ?v1))) (f9 f41 (f11 (f12 f13 f14) ?v0))) f1) (= (f46 (f47 f48 ?v1) f49) f1)))))
(assert (forall ((?v0 S10) (?v1 S12) (?v2 S12) (?v3 S7) (?v4 S12) (?v5 S7) (?v6 S5)) (let ((?v_1 (f6 f39 ?v3)) (?v_0 (f30 f31 (f33 f34 ?v4))) (?v_2 (f37 f38 ?v0)) (?v_3 (f21 f22 ?v1))) (=> (= (f53 f54 ?v0) f1) (=> (not (= ?v1 f23)) (=> (= (f16 (f17 f18 (f19 (f20 (f21 f22 ?v2) ?v1) (f25 (f26 f27 (f28 f29 ?v1)) (f25 (f30 f31 ?v_1) (f25 ?v_0 (f25 (f30 f31 (f6 f7 ?v5)) ?v6)))))) ?v_2) f1) (=> (= (f16 (f17 f18 (f19 (f20 ?v_3 f23) (f25 (f30 f31 (f33 f34 ?v1)) (f25 ?v_0 ?v_1)))) ?v_2) f1) (= (f53 f54 (f50 (f51 f52 (f19 (f20 ?v_3 ?v4) ?v6)) ?v0)) f1))))))))
(assert (forall ((?v0 S10) (?v1 S12) (?v2 S12) (?v3 S7) (?v4 S7) (?v5 S7) (?v6 S5)) (let ((?v_2 (f6 f39 ?v4)) (?v_0 (f37 f38 ?v0)) (?v_1 (f30 f31 (f6 f39 ?v5))) (?v_3 (f6 f7 ?v3))) (=> (= (f42 (f43 f44 ?v0) f45) f1) (=> (= (f16 (f17 f18 (f19 (f20 (f21 f22 ?v1) ?v2) (f25 (f26 f27 ?v3) ?v_2))) ?v_0) f1) (=> (= (f16 (f17 f18 (f19 (f20 (f21 f22 f23) ?v2) (f25 (f26 f27 (f28 f29 ?v2)) (f25 ?v_1 (f25 (f30 f31 (f33 f34 ?v1)) (f25 (f30 f31 ?v_3) ?v6)))))) ?v_0) f1) (= (f42 (f43 f44 (f50 (f51 f52 (f19 (f20 f55 f14) (f25 ?v_1 (f25 (f30 f31 ?v_2) ?v_3)))) ?v0)) f45) f1)))))))
(assert (forall ((?v0 S10) (?v1 S7) (?v2 S12) (?v3 S12) (?v4 S7) (?v5 S12) (?v6 S7) (?v7 S12) (?v8 S5)) (let ((?v_1 (f26 f27 ?v1)) (?v_2 (f6 f39 ?v4)) (?v_0 (f37 f38 ?v0))) (=> (= (f42 (f43 f44 ?v0) f45) f1) (=> (= (f56 (f57 f58 ?v1) f59) f1) (=> (= (f16 (f17 f18 (f19 (f20 (f21 f22 ?v2) ?v3) (f25 ?v_1 ?v_2))) ?v_0) f1) (=> (= (f16 (f17 f18 (f19 (f20 (f21 f22 ?v5) ?v3) (f25 (f26 f27 (f28 f29 ?v3)) (f25 (f30 f31 (f6 f39 ?v6)) (f25 (f30 f31 (f33 f34 ?v7)) (f25 (f30 f31 (f6 f7 ?v1)) ?v8)))))) ?v_0) f1) (= (f42 (f43 f44 (f50 (f51 f52 (f19 (f20 (f21 f22 ?v3) ?v7) (f25 ?v_1 (f25 (f30 f31 ?v_2) ?v_2)))) ?v0)) f45) f1))))))))
(assert (forall ((?v0 S12) (?v1 S5) (?v2 S12) (?v3 S7) (?v4 S10)) (let ((?v_1 (f6 f7 ?v3))) (let ((?v_0 (f30 f31 ?v_1))) (=> (= (f16 (f17 f18 (f19 (f20 (f21 f22 f23) ?v0) (f25 (f26 f27 (f28 f29 ?v0)) (f25 (f30 f31 ?v1) (f25 (f30 f31 (f33 f34 ?v2)) (f25 ?v_0 (f25 (f26 f27 (f28 f29 ?v2)) (f25 ?v_0 (f33 f34 ?v0))))))))) (f37 f38 ?v4)) f1) (=> (not (= (f46 (f47 f48 ?v0) f49) f1)) (=> (not (= (f46 (f47 f48 ?v2) f49) f1)) (=> (= (f42 (f43 f44 ?v4) f45) f1) (=> (forall ((?v5 S5)) (not (= (f16 (f17 f18 (f19 (f20 f55 f14) (f25 (f30 f31 ?v1) (f25 (f30 f31 ?v5) ?v_1)))) (f37 f38 ?v4)) f1))) (not (= (f3 (f4 f5 ?v_1) (f9 f10 (f11 (f12 f13 f14) ?v4))) f1)))))))))))
(assert (forall ((?v0 S12) (?v1 S7) (?v2 S5) (?v3 S12) (?v4 S7) (?v5 S5) (?v6 S10)) (let ((?v_0 (f6 f7 ?v4))) (=> (= (f16 (f17 f18 (f19 (f20 (f21 f22 f23) ?v0) (f25 (f26 f27 ?v1) (f25 (f30 f31 ?v2) (f25 (f30 f31 (f33 f34 ?v3)) (f25 (f30 f31 ?v_0) ?v5)))))) (f37 f38 ?v6)) f1) (=> (forall ((?v7 S5)) (not (= (f16 (f17 f18 (f19 (f20 f55 f14) (f25 (f30 f31 ?v2) (f25 (f30 f31 ?v7) ?v_0)))) (f37 f38 ?v6)) f1))) (=> (not (= (f46 (f47 f48 ?v0) f49) f1)) (=> (not (= (f46 (f47 f48 ?v3) f49) f1)) (=> (= (f42 (f43 f44 ?v6) f45) f1) (not (= (f3 (f4 f5 ?v_0) (f9 f10 (f11 (f12 f13 f14) ?v6))) f1))))))))))
(assert (forall ((?v0 S10) (?v1 S7) (?v2 S12) (?v3 S12)) (let ((?v_0 (f6 f39 ?v1))) (=> (= (f42 (f43 f44 ?v0) f45) f1) (=> (not (= (f3 (f4 f5 ?v_0) (f11 f60 ?v0)) f1)) (= (f42 (f43 f44 (f50 (f51 f52 (f19 (f20 (f21 f22 ?v2) f23) (f25 (f30 f31 (f33 f34 ?v2)) (f25 (f30 f31 (f33 f34 ?v3)) ?v_0)))) ?v0)) f45) f1))))))
(assert (forall ((?v0 S37) (?v1 S38)) (= (= (f61 (f62 f63 ?v0) ?v1) f1) (= (f64 ?v1 ?v0) f1))))
(assert (forall ((?v0 S41) (?v1 S42)) (= (= (f65 (f66 f67 ?v0) ?v1) f1) (= (f68 ?v1 ?v0) f1))))
(assert (forall ((?v0 S5) (?v1 S3)) (= (= (f3 (f4 f5 ?v0) ?v1) f1) (= (f69 ?v1 ?v0) f1))))
(assert (forall ((?v0 S16) (?v1 S14)) (= (= (f16 (f17 f18 ?v0) ?v1) f1) (= (f70 ?v1 ?v0) f1))))
(assert (forall ((?v0 S10) (?v1 S27)) (= (= (f42 (f43 f44 ?v0) ?v1) f1) (= (f53 ?v1 ?v0) f1))))
(assert (forall ((?v0 S12) (?v1 S30)) (= (= (f46 (f47 f48 ?v0) ?v1) f1) (= (f71 ?v1 ?v0) f1))))
(assert (forall ((?v0 S7) (?v1 S35)) (= (= (f56 (f57 f58 ?v0) ?v1) f1) (= (f72 ?v1 ?v0) f1))))
(assert (forall ((?v0 S10) (?v1 S12) (?v2 S12) (?v3 S7) (?v4 S7) (?v5 S7) (?v6 S5)) (let ((?v_2 (f6 f39 ?v4)) (?v_0 (f37 f38 ?v0)) (?v_1 (f30 f31 (f6 f39 ?v5))) (?v_3 (f6 f7 ?v3))) (=> (= (f53 f54 ?v0) f1) (=> (= (f16 (f17 f18 (f19 (f20 (f21 f22 ?v1) ?v2) (f25 (f26 f27 ?v3) ?v_2))) ?v_0) f1) (=> (= (f16 (f17 f18 (f19 (f20 (f21 f22 f23) ?v2) (f25 (f26 f27 (f28 f29 ?v2)) (f25 ?v_1 (f25 (f30 f31 (f33 f34 ?v1)) (f25 (f30 f31 ?v_3) ?v6)))))) ?v_0) f1) (= (f53 f54 (f50 (f51 f52 (f19 (f20 f55 f14) (f25 ?v_1 (f25 (f30 f31 ?v_2) ?v_3)))) ?v0)) f1)))))))
(assert (forall ((?v0 S10) (?v1 S7) (?v2 S12) (?v3 S12) (?v4 S12) (?v5 S7)) (let ((?v_2 (f6 f7 ?v1)) (?v_4 (f33 f34 ?v3)) (?v_1 (f30 f31 (f33 f34 ?v4))) (?v_0 (f6 f39 ?v5))) (let ((?v_3 (f30 f31 ?v_2))) (=> (= (f42 (f43 f44 ?v0) f45) f1) (=> (not (= (f3 (f4 f5 ?v_2) (f11 f60 ?v0)) f1)) (=> (= (f56 (f57 f58 ?v1) f59) f1) (=> (= (f16 (f17 f18 (f19 (f20 (f21 f22 ?v2) f23) (f25 (f30 f31 ?v_4) (f25 ?v_1 ?v_0)))) (f37 f38 ?v0)) f1) (= (f42 (f43 f44 (f50 (f51 f52 (f19 (f20 (f21 f22 f23) ?v3) (f25 (f26 f27 (f28 f29 ?v3)) (f25 (f30 f31 ?v_0) (f25 ?v_1 (f25 ?v_3 (f25 (f26 f27 (f28 f29 ?v4)) (f25 ?v_3 ?v_4)))))))) ?v0)) f45) f1)))))))))
(assert (forall ((?v0 S10) (?v1 S7) (?v2 S12) (?v3 S12) (?v4 S7) (?v5 S12) (?v6 S7) (?v7 S12) (?v8 S5)) (let ((?v_1 (f26 f27 ?v1)) (?v_2 (f6 f39 ?v4)) (?v_0 (f37 f38 ?v0))) (=> (= (f53 f54 ?v0) f1) (=> (= (f56 (f57 f58 ?v1) f59) f1) (=> (= (f16 (f17 f18 (f19 (f20 (f21 f22 ?v2) ?v3) (f25 ?v_1 ?v_2))) ?v_0) f1) (=> (= (f16 (f17 f18 (f19 (f20 (f21 f22 ?v5) ?v3) (f25 (f26 f27 (f28 f29 ?v3)) (f25 (f30 f31 (f6 f39 ?v6)) (f25 (f30 f31 (f33 f34 ?v7)) (f25 (f30 f31 (f6 f7 ?v1)) ?v8)))))) ?v_0) f1) (= (f53 f54 (f50 (f51 f52 (f19 (f20 (f21 f22 ?v3) ?v7) (f25 ?v_1 (f25 (f30 f31 ?v_2) ?v_2)))) ?v0)) f1))))))))
(assert (forall ((?v0 S41) (?v1 S41) (?v2 S45)) (let ((?v_0 (f66 f67 ?v0))) (=> (= (f65 ?v_0 (f73 f74 (f75 (f76 f77 ?v1) ?v2))) f1) (or (= ?v0 ?v1) (= (f65 ?v_0 (f73 f74 ?v2)) f1))))))
(assert (forall ((?v0 S37) (?v1 S37) (?v2 S41)) (let ((?v_0 (f62 f63 ?v0))) (=> (= (f61 ?v_0 (f78 f79 (f80 (f81 f82 ?v1) ?v2))) f1) (or (= ?v0 ?v1) (= (f61 ?v_0 (f78 f79 ?v2)) f1))))))
(assert (forall ((?v0 S5) (?v1 S5) (?v2 S52)) (let ((?v_0 (f4 f5 ?v0))) (=> (= (f3 ?v_0 (f83 f84 (f85 (f86 f87 ?v1) ?v2))) f1) (or (= ?v0 ?v1) (= (f3 ?v_0 (f83 f84 ?v2)) f1))))))
(assert (forall ((?v0 S10) (?v1 S10) (?v2 S56)) (let ((?v_0 (f43 f44 ?v0))) (=> (= (f42 ?v_0 (f88 f89 (f90 (f91 f92 ?v1) ?v2))) f1) (or (= ?v0 ?v1) (= (f42 ?v_0 (f88 f89 ?v2)) f1))))))
(assert (forall ((?v0 S12) (?v1 S12) (?v2 S60)) (let ((?v_0 (f47 f48 ?v0))) (=> (= (f46 ?v_0 (f93 f94 (f95 (f96 f97 ?v1) ?v2))) f1) (or (= ?v0 ?v1) (= (f46 ?v_0 (f93 f94 ?v2)) f1))))))
(assert (forall ((?v0 S7) (?v1 S7) (?v2 S64)) (let ((?v_0 (f57 f58 ?v0))) (=> (= (f56 ?v_0 (f98 f99 (f100 (f101 f102 ?v1) ?v2))) f1) (or (= ?v0 ?v1) (= (f56 ?v_0 (f98 f99 ?v2)) f1))))))
(assert (forall ((?v0 S16) (?v1 S16) (?v2 S10)) (let ((?v_0 (f17 f18 ?v0))) (=> (= (f16 ?v_0 (f37 f38 (f50 (f51 f52 ?v1) ?v2))) f1) (or (= ?v0 ?v1) (= (f16 ?v_0 (f37 f38 ?v2)) f1))))))
(assert (forall ((?v0 S5) (?v1 S5) (?v2 S10)) (let ((?v_0 (f11 f60 ?v2))) (=> (= (f3 (f4 f5 (f25 (f30 f31 ?v0) ?v1)) ?v_0) f1) (=> (=> (= (f3 (f4 f5 ?v0) ?v_0) f1) (=> (= (f3 (f4 f5 ?v1) ?v_0) f1) false)) false)))))
(assert (forall ((?v0 S12)) (= (f56 (f57 f58 (f28 f29 ?v0)) f59) f1)))
(assert (forall ((?v0 S12) (?v1 S10)) (= (f3 (f4 f5 (f6 f7 (f28 f29 ?v0))) (f11 f60 ?v1)) f1)))
(assert (forall ((?v0 S5) (?v1 S10)) (let ((?v_0 (f4 f5 ?v0))) (=> (= (f3 ?v_0 (f9 f41 (f11 (f12 f13 f14) ?v1))) f1) (= (f3 ?v_0 (f11 f60 ?v1)) f1)))))
(assert (forall ((?v0 S12) (?v1 S5) (?v2 S12) (?v3 S5)) (= (= (f19 (f20 f55 ?v0) ?v1) (f19 (f20 f55 ?v2) ?v3)) (and (= ?v0 ?v2) (= ?v1 ?v3)))))
(assert (forall ((?v0 S7) (?v1 S7)) (=> (not (= (= (f56 (f57 f58 ?v0) f59) f1) (= (f56 (f57 f58 ?v1) f59) f1))) (not (= ?v0 ?v1)))))
(assert (forall ((?v0 S12) (?v1 S5) (?v2 S10)) (=> (= (f16 (f17 f18 (f19 (f20 f55 ?v0) ?v1)) (f37 f38 ?v2)) f1) (= (f3 (f4 f5 ?v1) (f11 f60 ?v2)) f1))))
(assert (forall ((?v0 S5) (?v1 S5) (?v2 S10)) (let ((?v_0 (f11 f60 ?v2))) (=> (= (f3 (f4 f5 (f25 (f30 f31 ?v0) ?v1)) ?v_0) f1) (and (= (f3 (f4 f5 ?v0) ?v_0) f1) (= (f3 (f4 f5 ?v1) ?v_0) f1))))))
(assert (forall ((?v0 S12) (?v1 S5) (?v2 S12) (?v3 S12) (?v4 S5)) (not (= (f19 (f20 f55 ?v0) ?v1) (f19 (f20 (f21 f22 ?v2) ?v3) ?v4)))))
(assert (forall ((?v0 S12) (?v1 S12) (?v2 S5) (?v3 S12) (?v4 S5)) (not (= (f19 (f20 (f21 f22 ?v0) ?v1) ?v2) (f19 (f20 f55 ?v3) ?v4)))))
(assert (forall ((?v0 S10)) (= (= (f53 f54 ?v0) f1) (= (f42 (f43 f44 ?v0) f45) f1))))
(assert (forall ((?v0 S7) (?v1 S10) (?v2 S12)) (=> (not (= (f3 (f4 f5 (f6 f7 ?v0)) (f11 f60 ?v1)) f1)) (not (= ?v0 (f28 f29 ?v2))))))
(assert (forall ((?v0 S7) (?v1 S10) (?v2 S12)) (=> (not (= (f3 (f4 f5 (f6 f7 ?v0)) (f11 f60 ?v1)) f1)) (not (= (f28 f29 ?v2) ?v0)))))
(assert (forall ((?v0 S12) (?v1 S12) (?v2 S5) (?v3 S10)) (=> (= (f16 (f17 f18 (f19 (f20 (f21 f22 ?v0) ?v1) ?v2)) (f37 f38 ?v3)) f1) (= (f3 (f4 f5 ?v2) (f11 f60 ?v3)) f1))))
(assert (forall ((?v0 S12) (?v1 S5) (?v2 S10)) (=> (= (f16 (f17 f18 (f19 (f20 f55 ?v0) ?v1)) (f37 f38 ?v2)) f1) (= (f3 (f4 f5 ?v1) (f11 (f12 f13 ?v0) ?v2)) f1))))
(assert (forall ((?v0 S7) (?v1 S64) (?v2 S7) (?v3 S64)) (= (= (f100 (f101 f102 ?v0) ?v1) (f100 (f101 f102 ?v2) ?v3)) (and (= ?v0 ?v2) (= ?v1 ?v3)))))
(assert (forall ((?v0 S12) (?v1 S60) (?v2 S12) (?v3 S60)) (= (= (f95 (f96 f97 ?v0) ?v1) (f95 (f96 f97 ?v2) ?v3)) (and (= ?v0 ?v2) (= ?v1 ?v3)))))
(assert (forall ((?v0 S10) (?v1 S56) (?v2 S10) (?v3 S56)) (= (= (f90 (f91 f92 ?v0) ?v1) (f90 (f91 f92 ?v2) ?v3)) (and (= ?v0 ?v2) (= ?v1 ?v3)))))
(assert (forall ((?v0 S5) (?v1 S52) (?v2 S5) (?v3 S52)) (= (= (f85 (f86 f87 ?v0) ?v1) (f85 (f86 f87 ?v2) ?v3)) (and (= ?v0 ?v2) (= ?v1 ?v3)))))
(assert (forall ((?v0 S16) (?v1 S10) (?v2 S16) (?v3 S10)) (= (= (f50 (f51 f52 ?v0) ?v1) (f50 (f51 f52 ?v2) ?v3)) (and (= ?v0 ?v2) (= ?v1 ?v3)))))
(assert (forall ((?v0 S41) (?v1 S45) (?v2 S41) (?v3 S45)) (= (= (f75 (f76 f77 ?v0) ?v1) (f75 (f76 f77 ?v2) ?v3)) (and (= ?v0 ?v2) (= ?v1 ?v3)))))
(assert (forall ((?v0 S37) (?v1 S41) (?v2 S37) (?v3 S41)) (= (= (f80 (f81 f82 ?v0) ?v1) (f80 (f81 f82 ?v2) ?v3)) (and (= ?v0 ?v2) (= ?v1 ?v3)))))
(assert (forall ((?v0 S7) (?v1 S64)) (not (= (f100 (f101 f102 ?v0) ?v1) ?v1))))
(assert (forall ((?v0 S12) (?v1 S60)) (not (= (f95 (f96 f97 ?v0) ?v1) ?v1))))
(assert (forall ((?v0 S10) (?v1 S56)) (not (= (f90 (f91 f92 ?v0) ?v1) ?v1))))
(assert (forall ((?v0 S5) (?v1 S52)) (not (= (f85 (f86 f87 ?v0) ?v1) ?v1))))
(assert (forall ((?v0 S16) (?v1 S10)) (not (= (f50 (f51 f52 ?v0) ?v1) ?v1))))
(assert (forall ((?v0 S41) (?v1 S45)) (not (= (f75 (f76 f77 ?v0) ?v1) ?v1))))
(assert (forall ((?v0 S37) (?v1 S41)) (not (= (f80 (f81 f82 ?v0) ?v1) ?v1))))
(assert (forall ((?v0 S64) (?v1 S7)) (not (= ?v0 (f100 (f101 f102 ?v1) ?v0)))))
(assert (forall ((?v0 S60) (?v1 S12)) (not (= ?v0 (f95 (f96 f97 ?v1) ?v0)))))
(assert (forall ((?v0 S56) (?v1 S10)) (not (= ?v0 (f90 (f91 f92 ?v1) ?v0)))))
(assert (forall ((?v0 S52) (?v1 S5)) (not (= ?v0 (f85 (f86 f87 ?v1) ?v0)))))
(assert (forall ((?v0 S10) (?v1 S16)) (not (= ?v0 (f50 (f51 f52 ?v1) ?v0)))))
(assert (forall ((?v0 S45) (?v1 S41)) (not (= ?v0 (f75 (f76 f77 ?v1) ?v0)))))
(assert (forall ((?v0 S41) (?v1 S37)) (not (= ?v0 (f80 (f81 f82 ?v1) ?v0)))))
(assert (forall ((?v0 S10) (?v1 S7) (?v2 S12) (?v3 S12)) (let ((?v_0 (f6 f39 ?v1))) (=> (= (f53 f54 ?v0) f1) (=> (not (= (f3 (f4 f5 ?v_0) (f11 f60 ?v0)) f1)) (= (f53 f54 (f50 (f51 f52 (f19 (f20 (f21 f22 ?v2) f23) (f25 (f30 f31 (f33 f34 ?v2)) (f25 (f30 f31 (f33 f34 ?v3)) ?v_0)))) ?v0)) f1))))))
(assert (forall ((?v0 S10) (?v1 S7) (?v2 S7) (?v3 S12) (?v4 S12) (?v5 S12)) (let ((?v_0 (f6 f39 ?v1))) (=> (= (f53 f54 ?v0) f1) (=> (not (= (f3 (f4 f5 ?v_0) (f11 f60 ?v0)) f1)) (=> (= (f56 (f57 f58 ?v2) f59) f1) (=> (= (f16 (f17 f18 (f19 (f20 (f21 f22 ?v3) ?v4) (f25 (f26 f27 (f28 f29 ?v4)) (f25 (f30 f31 (f6 f7 ?v2)) (f33 f34 ?v5))))) (f37 f38 ?v0)) f1) (= (f53 f54 (f50 (f51 f52 (f19 (f20 (f21 f22 ?v4) ?v5) (f25 (f26 f27 ?v2) ?v_0))) ?v0)) f1))))))))
(assert (forall ((?v0 S10) (?v1 S7) (?v2 S12) (?v3 S12) (?v4 S12) (?v5 S7)) (let ((?v_2 (f6 f7 ?v1)) (?v_4 (f33 f34 ?v3)) (?v_1 (f30 f31 (f33 f34 ?v4))) (?v_0 (f6 f39 ?v5))) (let ((?v_3 (f30 f31 ?v_2))) (=> (= (f53 f54 ?v0) f1) (=> (not (= (f3 (f4 f5 ?v_2) (f11 f60 ?v0)) f1)) (=> (= (f56 (f57 f58 ?v1) f59) f1) (=> (= (f16 (f17 f18 (f19 (f20 (f21 f22 ?v2) f23) (f25 (f30 f31 ?v_4) (f25 ?v_1 ?v_0)))) (f37 f38 ?v0)) f1) (= (f53 f54 (f50 (f51 f52 (f19 (f20 (f21 f22 f23) ?v3) (f25 (f26 f27 (f28 f29 ?v3)) (f25 (f30 f31 ?v_0) (f25 ?v_1 (f25 ?v_3 (f25 (f26 f27 (f28 f29 ?v4)) (f25 ?v_3 ?v_4)))))))) ?v0)) f1)))))))))
(assert (forall ((?v0 S7) (?v1 S5) (?v2 S3)) (let ((?v_0 (f9 f10 ?v2))) (=> (= (f3 (f4 f5 (f25 (f26 f27 ?v0) ?v1)) ?v_0) f1) (=> (= (f56 (f57 f58 ?v0) f59) f1) (=> (= (f3 (f4 f5 (f6 f7 ?v0)) ?v_0) f1) (= (f3 (f4 f5 ?v1) ?v_0) f1)))))))
(assert (forall ((?v0 S5) (?v1 S12) (?v2 S5) (?v3 S10)) (let ((?v_1 (f12 f13 f14)) (?v_0 (f4 f5 ?v0))) (=> (not (= (f3 ?v_0 (f9 f10 (f11 ?v_1 (f50 (f51 f52 (f19 (f20 f55 ?v1) ?v2)) ?v3)))) f1)) (not (= (f3 ?v_0 (f9 f10 (f11 ?v_1 ?v3))) f1))))))
(assert (forall ((?v0 S12) (?v1 S5) (?v2 S10)) (=> (= (f16 (f17 f18 (f19 (f20 f55 ?v0) ?v1)) (f37 f38 ?v2)) f1) (=> (= (f46 (f47 f48 ?v0) f49) f1) (= (f3 (f4 f5 ?v1) (f11 (f12 f13 f14) ?v2)) f1)))))
(assert (forall ((?v0 S10) (?v1 S7) (?v2 S7) (?v3 S12) (?v4 S12) (?v5 S12)) (let ((?v_0 (f6 f39 ?v1))) (=> (= (f42 (f43 f44 ?v0) f45) f1) (=> (not (= (f3 (f4 f5 ?v_0) (f11 f60 ?v0)) f1)) (=> (= (f56 (f57 f58 ?v2) f59) f1) (=> (= (f16 (f17 f18 (f19 (f20 (f21 f22 ?v3) ?v4) (f25 (f26 f27 (f28 f29 ?v4)) (f25 (f30 f31 (f6 f7 ?v2)) (f33 f34 ?v5))))) (f37 f38 ?v0)) f1) (= (f42 (f43 f44 (f50 (f51 f52 (f19 (f20 (f21 f22 ?v4) ?v5) (f25 (f26 f27 ?v2) ?v_0))) ?v0)) f45) f1))))))))
(assert (forall ((?v0 S7) (?v1 S10)) (let ((?v_0 (f57 f58 ?v0))) (=> (not (= (f3 (f4 f5 (f6 f7 ?v0)) (f11 f60 ?v1)) f1)) (=> (= (f56 ?v_0 f59) f1) (=> (= (f42 (f43 f44 ?v1) f45) f1) (not (= (f56 ?v_0 (f103 f104 (f9 f41 (f11 (f12 f13 f14) ?v1)))) f1))))))))
(assert (forall ((?v0 S10)) (exists ((?v1 S7)) (not (= (f3 (f4 f5 (f6 f39 ?v1)) (f11 f60 ?v0)) f1)))))
(assert (forall ((?v0 S10) (?v1 S5) (?v2 S12)) (=> (= (f53 f54 ?v0) f1) (=> (= (f3 (f4 f5 ?v1) (f9 f105 (f9 f10 (f11 (f12 f13 f14) ?v0)))) f1) (= (f53 f54 (f50 (f51 f52 (f19 (f20 (f21 f22 f14) ?v2) ?v1)) ?v0)) f1)))))
(assert (forall ((?v0 S5) (?v1 S12) (?v2 S5) (?v3 S10)) (let ((?v_1 (f12 f13 f14)) (?v_0 (f4 f5 ?v0))) (=> (not (= (f3 ?v_0 (f9 f10 (f11 ?v_1 (f50 (f51 f52 (f19 (f20 f106 ?v1) ?v2)) ?v3)))) f1)) (not (= (f3 ?v_0 (f9 f10 (f11 ?v_1 ?v3))) f1))))))
(assert (forall ((?v0 S10) (?v1 S5) (?v2 S12)) (=> (= (f42 (f43 f44 ?v0) f45) f1) (=> (= (f3 (f4 f5 ?v1) (f9 f105 (f9 f10 (f11 (f12 f13 f14) ?v0)))) f1) (= (f42 (f43 f44 (f50 (f51 f52 (f19 (f20 (f21 f22 f14) ?v2) ?v1)) ?v0)) f45) f1)))))
(assert (forall ((?v0 S12) (?v1 S12) (?v2 S7) (?v3 S12) (?v4 S7) (?v5 S5) (?v6 S10)) (let ((?v_0 (f30 f31 (f6 f7 ?v4)))) (=> (= (f16 (f17 f18 (f19 (f20 (f21 f22 ?v0) ?v1) (f25 (f26 f27 (f28 f29 ?v1)) (f25 (f30 f31 (f6 f39 ?v2)) (f25 (f30 f31 (f33 f34 ?v3)) (f25 ?v_0 ?v5)))))) (f37 f38 ?v6)) f1) (=> (= (f42 (f43 f44 ?v6) f45) f1) (or (and (not (= (f56 (f57 f58 ?v4) (f107 (f108 f109 f29) f110)) f1)) (= ?v5 (f25 (f26 f27 (f28 f29 ?v3)) (f25 ?v_0 (f33 f34 ?v1))))) (= (f3 (f4 f5 ?v5) (f9 f10 (f11 (f12 f13 f14) ?v6))) f1)))))))
(assert (forall ((?v0 S5) (?v1 S3)) (let ((?v_0 (f4 f5 ?v0))) (=> (= (f3 ?v_0 ?v1) f1) (= (f3 ?v_0 (f9 f105 ?v1)) f1)))))
(assert (forall ((?v0 S5) (?v1 S3) (?v2 S5)) (let ((?v_0 (f9 f105 ?v1))) (=> (= (f3 (f4 f5 ?v0) ?v_0) f1) (=> (= (f3 (f4 f5 ?v2) ?v_0) f1) (= (f3 (f4 f5 (f25 (f30 f31 ?v0) ?v2)) ?v_0) f1))))))
(assert (forall ((?v0 S12) (?v1 S3)) (= (f3 (f4 f5 (f33 f34 ?v0)) (f9 f105 ?v1)) f1)))
(assert (forall ((?v0 S5) (?v1 S3) (?v2 S7)) (let ((?v_0 (f9 f105 ?v1))) (=> (= (f3 (f4 f5 ?v0) ?v_0) f1) (=> (= (f3 (f4 f5 (f6 f7 ?v2)) ?v1) f1) (= (f3 (f4 f5 (f25 (f26 f27 ?v2) ?v0)) ?v_0) f1))))))
(assert (forall ((?v0 S5) (?v1 S3)) (let ((?v_0 (f4 f5 ?v0)) (?v_1 (f9 f105 ?v1))) (=> (= (f3 ?v_0 (f9 f105 ?v_1)) f1) (= (f3 ?v_0 ?v_1) f1)))))
(assert (forall ((?v0 S12) (?v1 S5) (?v2 S12) (?v3 S5)) (= (= (f19 (f20 f106 ?v0) ?v1) (f19 (f20 f106 ?v2) ?v3)) (and (= ?v0 ?v2) (= ?v1 ?v3)))))
(assert (forall ((?v0 S3)) (let ((?v_0 (f9 f105 ?v0))) (= (f9 f105 ?v_0) ?v_0))))
(assert (forall ((?v0 S5) (?v1 S5) (?v2 S3)) (let ((?v_0 (f4 f5 (f25 (f30 f31 ?v0) ?v1))) (?v_1 (f9 f105 ?v2))) (= (= (f3 ?v_0 ?v_1) f1) (or (= (f3 ?v_0 ?v2) f1) (and (= (f3 (f4 f5 ?v0) ?v_1) f1) (= (f3 (f4 f5 ?v1) ?v_1) f1)))))))
(assert (forall ((?v0 S7) (?v1 S3)) (let ((?v_0 (f4 f5 (f6 f7 ?v0)))) (= (= (f3 ?v_0 (f9 f105 ?v1)) f1) (= (f3 ?v_0 ?v1) f1)))))
(assert (forall ((?v0 S12) (?v1 S30)) (= (= (f56 (f57 f58 (f28 f29 ?v0)) (f107 (f108 f109 f29) ?v1)) f1) (= (f46 (f47 f48 ?v0) ?v1) f1))))
(assert (forall ((?v0 S7) (?v1 S3)) (let ((?v_0 (f4 f5 (f6 f39 ?v0)))) (= (= (f3 ?v_0 (f9 f105 ?v1)) f1) (= (f3 ?v_0 ?v1) f1)))))
(assert (forall ((?v0 S7) (?v1 S3)) (let ((?v_0 (f4 f5 (f6 f39 ?v0)))) (= (= (f3 ?v_0 (f9 f105 ?v1)) f1) (= (f3 ?v_0 ?v1) f1)))))
(check-sat)
(exit)
